HUN,8,6,888
4,29,2,28,5,23,3,27,1,23,0,28
2,23,0,29,1,21,3,25,5,25,4,22
3,30,0,23,4,24,1,22,2,30,5,23
0,25,1,21,4,30,5,25,2,24,3,29
5,23,4,30,1,28,0,27,2,21,3,24
1,30,3,24,5,29,2,30,0,23,4,23
1,29,2,30,5,26,4,27,3,24,0,22
5,21,0,27,2,21,1,26,4,25,3,22
